c A SAT instance generated from a 3-CNF formula that had 30 clauses and 20 variables
p cnf 20 30
10 -15 6 0
17 -3 2 0
-2 19 -3 0
-7 13 -14 0
-15 7 -5 0
2 7 3 0
6 19 -3 0
12 7 -19 0
-17 -2 -15 0
-11 15 1 0
1 3 -9 0
16 17 11 0
13 -2 -11 0
-6 -17 16 0
-18 -3 20 0
-2 -7 12 0
20 -1 -8 0
-6 19 -13 0
-11 -2 -9 0
-14 16 -1 0
-12 -5 -20 0
1 -9 11 0
2 20 -12 0
-4 1 7 0
-18 19 15 0
9 -6 -13 0
8 2 14 0
5 4 -16 0
15 13 17 0
-20 13 -11 0
